c --- [ banner ] -------------------------------------------------------------
c 
c CaDiCaL Radically Simplified CDCL SAT Solver
c Copyright (c) 2016-2021 A. Biere, M. Fleury, N. Froleyks
c 
c Version 1.5.2 9c38a080b32c28d805e8e6ca21849856b0cda605
c g++ (Ubuntu 7.5.0-3ubuntu1~18.04) 7.5.0 -Wall -Wextra -O3 -DNDEBUG
c Wed Feb 16 23:15:36 EST 2022 Linux fac-vanhoeve01 5.4.0-99-generic x86_64
c 
c --- [ limit ] --------------------------------------------------------------
c 
c setting time limit to 600 seconds real time (due to '-t 600')
c setting conflict limit to 1000000000 conflicts (due to '1000000000')
c 
c --- [ parsing input ] ------------------------------------------------------
c 
c reading DIMACS file from 'ddfwcnfs/queen14_14.col_14.cnf'
c opening file to read 'ddfwcnfs/queen14_14.col_14.cnf'
c found 'p cnf 2744 52612' header
c parsed 52612 clauses in 0.03 seconds process time
c closing file 'ddfwcnfs/queen14_14.col_14.cnf'
c after reading 698722 bytes 0.7 MB
c 
c --- [ options ] ------------------------------------------------------------
c 
c all options are set to their default value
c 
c --- [ solving ] ------------------------------------------------------------
c 
c time measured in process time since initialization
c 
c  seconds  reductions  redundant  irredundant
c         MB    restarts       trail     variables
c          level   conflicts       glue       remaining
c 
c *  0.03  8  0 0   0    0    0  0% 0 52416 2548 93%
c {  0.03  9  0 0   0    0    0  0% 0 52416 2548 93%
c -  0.04  9 13 1   0  300  112 26% 10 52416 2548 93%
c -  0.07 11 13 2  12  900  419 26% 11 52416 2548 93%
c }  0.07 11 13 2  12 1000  485 26% 11 52416 2548 93%
c [  0.07 11  0 2  12 1000  485  0% 0 52416 2548 93%
c O  0.07 11 28 2  12 1002  487 33% 12 52416 2548 93%
c -  0.10 11 17 3  12 1800  722 26% 13 52416 2548 93%
c ]  0.13 11 17 3  13 3000 1572 26% 14 52416 2548 93%
c {  0.13 11 13 3  13 3000 1572 26% 11 52416 2548 93%
c -  0.14 11 13 4  13 3000 1109 26% 11 52416 2548 93%
c F  0.14 11 13 4  13 3004 1113 26% 11 52416 2548 93%
c -  0.19 11 13 5  76 4501 1101 26% 11 52416 2548 93%
c #  0.25 11 13 5  97 6005 1943 26% 11 52416 2548 93%
c -  0.27 11 13 6 107 6301 1427 26% 11 52416 2548 93%
c }  0.29 11 13 6 138 7001 1791 26% 11 52416 2548 93%
c [  0.29 11 17 6 138 7001 1791 26% 14 52416 2548 93%
c -  0.33 12 19 7 139 8401 1722 26% 14 52416 2548 93%
c s  0.35 12 19 7 139 8726 1766 26% 14 52416 2548 93%
c e  0.45 12 19 7 139 8726  111 26% 14 39480 2002 73%
c 
c  seconds  reductions  redundant   irredundant
c         MB    restarts       trail      variables
c          level   conflicts       glue        remaining
c 
c ^  0.47 13 19 7 139 8726  111 26% 14 39480 2002 73%
c I  0.53 11 21 7 140 10007 1115 21% 15 39480 2002 73%
c -  0.62 13 40 8 141 10801 1787 45% 21 39480 2002 73%
c -  0.96 14 63 9 143 13502 3136 68% 34 39480 2002 73%
c ]  1.13 14 70 9 143 15002 4484 71% 39 39480 2002 73%
c {  1.13 14 13 9 143 15002 4484 35% 11 39480 2002 73%
c B  1.17 14 13 9 145 15009 4491 36% 11 39480 2002 73%
c -  1.23 13 15 10 528 16502 3085 32% 12 39480 2002 73%
c -  1.35 11 16 11 1039 19803 2851 28% 13 39480 2002 73%
c W  1.44 11 17 11 1184 21011 3500 28% 13 39480 2002 73%
c -  1.60 13 21 12 1383 23408 3546 30% 14 39480 2002 73%
c s  1.81 13 25 12 1673 25936 5680 32% 15 39480 2002 73%
c s  1.90 13 25 12 1673 25936 5669 32% 15 39480 2002 73%
c ^  1.91 13 25 12 1673 25936 5669 32% 15 39480 2002 73%
c -  2.07 14 28 13 1970 27309 4977 35% 17 39480 2002 73%
c F  2.09 14 27 13 1970 28015 5346 35% 16 39480 2002 73%
c }  2.23 14 26 13 1970 31005 7486 33% 16 39480 2002 73%
c [  2.23 14 70 13 1970 31005 7486 71% 39 39480 2002 73%
c -  2.26 14 69 14 1970 31510 4209 69% 38 39480 2002 73%
c -  2.43 14 56 15 1973 36012 4468 53% 32 39480 2002 73%
c 
c  seconds  reductions     redundant   irredundant
c         MB     restarts         trail      variables
c          level      conflicts       glue        remaining
c 
c B  2.43 14 56 15 1973 36019 4475 53% 32 39480 2002 73%
c -  3.03 17 87 16 1976 40812 5669 63% 43 39480 2002 73%
c W  3.62 17 91 16 1977 45020 9584 67% 47 39480 2002 73%
c -  3.76 14 91 17 1978 45912 6692 68% 48 39480 2002 73%
c -  4.53 17 90 18 1978 51314 6940 72% 50 39480 2002 73%
c s  4.61 17 90 18 1978 51747 7225 72% 51 39480 2002 73%
c s  4.73 17 90 18 1978 51747 7196 72% 51 39480 2002 73%
c ^  4.73 17 90 18 1978 51747 7196 72% 51 39480 2002 73%
c O  5.17 17 89 18 1979 55021 10183 73% 52 39480 2002 73%
c -  5.26 17 85 19 1981 57014 7563 70% 49 39480 2002 73%
c ]  5.46 17 74 19 1985 63007 11582 61% 43 39480 2002 73%
c {  5.46 17 26 19 1985 63007 11582 33% 16 39480 2002 73%
c -  5.47 17 26 20 1985 63015 6192 33% 16 39480 2002 73%
c B  5.58 17 24 20 1988 66022 8421 31% 16 39480 2002 73%
c -  5.76 17 24 21 2155 69316 6111 32% 16 39480 2002 73%
c -  6.13 17 25 22 2429 75918 6427 31% 16 39480 2002 73%
c W  6.36 17 26 22 2621 78024 7876 32% 16 39480 2002 73%
c -  6.56 17 25 23 2747 82818 6329 32% 16 39480 2002 73%
c s  6.68 17 25 23 2752 86162 7886 31% 15 39480 2002 73%
c s  6.76 17 25 23 2752 86162 7799 31% 15 39480 2002 73%
c 
c  seconds  reductions     redundant   irredundant
c         MB     restarts         trail      variables
c          level      conflicts       glue        remaining
c 
c ^  6.77 17 25 23 2752 86162 7799 31% 15 39480 2002 73%
c -  6.91 17 24 24 2752 90019 6325 30% 15 39480 2002 73%
c #  6.95 17 23 24 2752 91027 7032 30% 15 39480 2002 73%
c -  7.18 17 22 25 2752 97520 6797 29% 15 39480 2002 73%
c B  7.52 17 21 25 2754 105032 12316 28% 14 39480 2002 73%
c -  7.57 17 21 26 2819 105321 7706 28% 14 39480 2002 73%
c -  7.83 17 20 27 2836 113422 7021 27% 14 39480 2002 73%
c W  8.19 17 19 27 2863 120034 11634 26% 14 39480 2002 73%
c -  8.28 17 19 28 2868 121825 7843 26% 14 39480 2002 73%
c }  8.48 17 19 28 2876 127007 10854 26% 13 39480 2002 73%
c [  8.48 17 74 28 2876 127007 10854 61% 43 39480 2002 73%
c s  8.58 17 71 28 2876 129179 11702 59% 42 39480 2002 73%
c s  8.69 17 71 28 2876 129179 11179 59% 42 39480 2002 73%
c ^  8.70 17 71 28 2876 129179 11179 59% 42 39480 2002 73%
c -  8.77 17 70 29 2876 130526 7741 57% 41 39480 2002 73%
c B  9.01 17 64 29 2881 136035 11850 52% 38 39480 2002 73%
c -  9.45 17 72 30 2883 139527 9967 55% 41 39480 2002 73%
c - 10.78 21 73 31 2884 148827 11111 60% 44 39480 2002 73%
c W 11.50 21 73 31 2885 153037 14800 62% 45 39480 2002 73%
c - 12.33 21 72 32 2885 158427 11899 64% 46 39480 2002 73%
c 
c  seconds  reductions       redundant   irredundant
c         MB     restarts           trail      variables
c          level      conflicts         glue        remaining
c 
c - 13.84 21 70 33 2886 168329 13002 67% 47 39480 2002 73%
c I 14.25 21 70 33 2888 171038 15238 68% 47 39480 2002 73%
c - 15.56 24 85 34 2892 178530 13792 70% 54 39480 2002 73%
c s 16.03 24 87 34 2893 180799 15768 71% 56 39480 2002 73%
c s 16.17 24 87 34 2893 180799 15678 71% 56 39480 2002 73%
c - 17.63 23 91 35 2899 189031 14339 72% 58 39480 2002 73%
c B 17.82 23 92 35 2899 190040 15277 72% 59 39480 2002 73%
c - 19.65 20 93 36 2900 199831 14404 74% 61 39480 2002 73%
c W 21.82 20 93 36 2907 210042 23355 76% 62 39480 2002 73%
c - 22.06 27 93 37 2907 210932 15034 76% 62 39480 2002 73%
c - 24.25 32 94 38 2914 222332 15363 77% 64 39480 2002 73%
c O 25.85 32 94 38 2915 231044 23204 78% 64 39480 2002 73%
c - 25.99 32 91 39 2915 234033 15156 76% 62 39480 2002 73%
c - 26.47 32 81 40 2916 246035 12004 68% 56 39480 2002 73%
c B 26.80 32 77 40 2917 253045 17588 64% 53 39480 2002 73%
c ] 27.00 32 83 40 2917 255010 19374 64% 53 39480 2002 73%
c { 27.00 32 19 40 2917 255010 19374 26% 13 39480 2002 73%
c - 27.14 18 19 41 2980 258335 12741 26% 13 39480 2002 73%
c - 27.60 20 18 42 3012 270936 10604 25% 13 39480 2002 73%
c F 27.85 20 17 42 3042 276051 14162 25% 13 39480 2002 73%
c 
c  seconds  reductions       redundant   irredundant
c         MB     restarts           trail      variables
c          level      conflicts         glue        remaining
c 
c - 28.12 20 17 43 3054 283838 11139 24% 13 39480 2002 73%
c - 28.61 20 16 44 3093 297042 10756 24% 12 39480 2002 73%
c B 28.73 20 16 44 3118 300052 12582 24% 12 39480 2002 73%
c - 29.21 21 17 45 3461 310545 13165 24% 12 39480 2002 73%
c - 29.90 21 16 46 3869 324346 12014 24% 12 39480 2002 73%
c W 30.21 21 16 46 3901 325054 12341 24% 12 39480 2002 73%
c - 30.90 21 17 47 4515 338446 11784 25% 13 39480 2002 73%
c # 31.36 21 17 47 4733 351055 20332 25% 13 39480 2002 73%
c - 31.44 21 17 48 4749 352846 12712 25% 13 39480 2002 73%
c - 31.96 21 16 49 4932 367546 11291 25% 13 39480 2002 73%
c B 32.34 21 16 49 5056 378056 16864 24% 12 39480 2002 73%
c - 32.61 21 17 50 5322 382546 11522 25% 13 39480 2002 73%
c - 33.20 21 16 51 5438 397846 12284 24% 12 39480 2002 73%
c W 33.88 21 16 51 5589 406058 17114 24% 12 39480 2002 73%
c - 34.22 21 16 52 5820 413448 13371 25% 12 39480 2002 73%
c - 34.81 21 16 53 5986 429350 12452 24% 12 39480 2002 73%
c F 35.04 21 16 53 6086 435059 15489 24% 12 39480 2002 73%
c - 35.42 21 15 54 6237 445551 11799 24% 12 39480 2002 73%
c - 36.03 21 15 55 6389 462051 12425 24% 12 39480 2002 73%
c B 36.14 21 15 55 6406 465060 14123 24% 12 39480 2002 73%
c 
c  seconds  reductions       redundant   irredundant
c         MB     restarts           trail      variables
c          level      conflicts         glue        remaining
c 
c - 36.88 21 16 56 7253 478852 14145 25% 12 39480 2002 73%
c - 37.57 21 16 57 7378 495954 13738 24% 12 39480 2002 73%
c s 37.60 21 16 57 7378 495954 10759 24% 12 39480 2002 73%
c w 37.66 21 16 57 7378 495954 10757 24% 12 39480 2002 73%
c W 38.09 21 16 57 7378 496063 10811 24% 12 39480 2002 73%
c } 38.68 21 16 57 7901 511010 19381 25% 12 39480 2002 73%
c [ 38.68 21 83 57 7901 511010 19381 64% 53 39480 2002 73%
c - 38.79 21 81 58 7901 513355 13966 63% 52 39480 2002 73%
c W 40.30 21 81 58 7901 528065 25019 59% 49 39480 2002 73%
c - 40.72 24 83 59 7901 531055 17843 60% 50 39480 2002 73%
c - 43.05 31 87 60 7908 549059 20158 63% 53 39480 2002 73%
c I 45.01 31 87 60 7915 561066 30804 66% 54 39480 2002 73%
c - 46.13 40 104 61 7916 567359 22210 67% 59 39480 2002 73%
c - 50.09 43 121 62 7924 585960 23513 69% 71 39480 2002 73%
c B 52.26 43 124 62 7930 595067 31736 70% 75 39480 2002 73%
c - 53.94 41 129 63 7931 604861 24793 71% 75 39480 2002 73%
c - 57.40 31 124 64 7933 624061 23926 73% 76 39480 2002 73%
c W 58.85 31 123 64 7938 630068 29516 73% 75 39480 2002 73%
c - 61.06 37 116 65 7945 643561 24506 75% 73 39480 2002 73%
c - 64.47 37 108 66 7953 663361 24452 76% 70 39480 2002 73%
c 
c  seconds   reductions       redundant   irredundant
c         MB      restarts           trail      variables
c           level      conflicts         glue        remaining
c 
c O 64.94 37 107 66 7954 666069 26642 76% 70 39480 2002 73%
c - 65.93 37 95 67 7962 683463 22163 68% 62 39480 2002 73%
c B 66.82 37 82 67 7963 703071 34905 60% 54 39480 2002 73%
c - 66.94 37 84 68 7963 703863 20038 60% 54 39480 2002 73%
c - 69.88 37 87 69 7964 724563 24443 65% 55 39480 2002 73%
c W 73.99 37 85 69 7965 741073 39474 67% 54 39480 2002 73%
c - 75.62 40 84 70 7965 745564 27765 68% 54 39480 2002 73%
c - 80.64 40 79 71 7965 766865 29232 71% 53 39480 2002 73%
c I 84.98 40 76 71 7965 780075 41577 73% 52 39480 2002 73%
c - 87.37 53 105 72 7965 788466 30769 73% 60 39480 2002 73%
c - 94.92 58 155 73 7969 810366 28981 74% 74 39480 2002 73%
c B 98.23 58 152 73 7974 820077 37643 75% 75 39480 2002 73%
c - 100.95 41 144 74 7980 832569 28060 76% 73 39480 2002 73%
c - 108.72 50 130 75 7990 855069 28350 77% 70 39480 2002 73%
c s 108.79 50 130 75 7990 855069 25815 77% 70 39480 2002 73%
c w 109.04 50 130 75 7990 855069 25815 77% 70 39480 2002 73%
c W 112.02 50 126 75 7994 861079 30894 78% 69 39480 2002 73%
c - 115.90 50 123 76 7996 877871 29806 79% 66 39480 2002 73%
c - 122.93 50 110 77 8003 900973 29020 80% 62 39480 2002 73%
c O 123.73 50 109 77 8005 903080 30605 80% 62 39480 2002 73%
c 
c  seconds   reductions       redundant   irredundant
c          MB     restarts           trail      variables
c           level      conflicts         glue        remaining
c 
c - 129.22 50 97 78 8014 924373 28529 80% 58 39480 2002 73%
c B 135.85 50 88 78 8025 946085 46641 80% 55 39480 2002 73%
c - 136.29 50 89 79 8026 948074 29414 80% 55 39480 2002 73%
c - 142.04 53 84 80 8028 972075 29485 81% 54 39480 2002 73%
c W 149.05 53 80 80 8028 990088 45670 81% 53 39480 2002 73%
c - 151.91 53 79 81 8028 996376 31999 81% 53 39480 2002 73%
c - 160.43 53 76 82 8038 1020977 32749 81% 53 39480 2002 73%
c ] 161.06 53 76 82 8040 1023010 34484 81% 53 39480 2002 73%
c { 161.06 53 16 82 8040 1023010 34484 25% 12 39480 2002 73%
c # 161.80 53 17 82 10504 1035090 40506 25% 13 39480 2002 73%
c - 162.35 53 17 83 10579 1045878 24800 25% 13 39480 2002 73%
c - 163.92 53 17 84 10712 1071078 22947 24% 12 39480 2002 73%
c B 164.54 53 16 84 10766 1081091 29751 24% 12 39480 2002 73%
c - 165.42 53 17 85 11348 1096582 21606 24% 13 39480 2002 73%
c - 166.73 53 16 86 11833 1122382 19800 24% 12 39480 2002 73%
c W 168.47 53 16 86 11885 1128092 22523 24% 12 39480 2002 73%
c - 170.13 53 18 87 13184 1148483 22394 26% 13 39480 2002 73%
c - 171.41 53 17 88 13332 1174883 21845 25% 13 39480 2002 73%
c F 171.47 53 17 88 13332 1176093 22522 25% 13 39480 2002 73%
c - 172.72 53 16 89 13444 1201583 21650 24% 12 39480 2002 73%
c 
c  seconds   reductions         redundant   irredundant
c          MB      restarts            trail      variables
c           level        conflicts         glue        remaining
c 
c B 173.96 53 15 89 13682 1225097 33927 24% 12 39480 2002 73%
c - 174.30 53 16 90 13933 1228584 20369 24% 12 39480 2002 73%
c - 175.90 53 17 91 15521 1255884 20673 25% 13 39480 2002 73%
c s 175.94 53 17 91 15521 1255884 17198 25% 13 39480 2002 73%
c w 176.06 53 17 91 15521 1255884 17197 25% 13 39480 2002 73%
c W 178.69 53 17 91 18989 1275100 26937 25% 13 39480 2002 73%
c - 179.21 53 17 92 20281 1283485 18943 24% 13 39480 2002 73%
c - 181.08 53 17 93 21283 1311389 22167 24% 13 39480 2002 73%
c # 181.99 53 16 93 21447 1326102 30335 24% 13 39480 2002 73%
c - 182.82 53 16 94 21517 1339591 22853 23% 13 39480 2002 73%
c - 184.58 53 15 95 21783 1368091 22474 23% 12 39480 2002 73%
c B 185.15 53 15 95 21849 1378103 27386 23% 12 39480 2002 73%
c - 186.40 53 16 96 22844 1396893 21923 24% 12 39480 2002 73%
c - 187.65 53 15 97 23475 1425993 20697 24% 12 39480 2002 73%
c W 189.58 53 15 97 23569 1431104 23295 24% 12 39480 2002 73%
c - 191.15 53 16 98 25032 1455393 21188 24% 13 39480 2002 73%
c - 192.60 53 15 99 26340 1485093 20415 24% 12 39480 2002 73%
c F 192.60 53 15 99 26340 1485107 20429 24% 12 39480 2002 73%
c - 194.09 53 15 100 27085 1515095 21299 23% 12 39480 2002 73%
c B 195.27 53 14 100 27424 1540111 33568 23% 12 39480 2002 73%
c 
c  seconds    reductions         redundant   irredundant
c          MB       restarts            trail      variables
c           level         conflicts         glue        remaining
c 
c - 196.36 53 17 101 28665 1545395 23049 26% 13 39480 2002 73%
c - 198.19 53 18 102 29650 1575995 24911 26% 13 39480 2002 73%
c W 201.22 53 17 102 29846 1596112 36582 25% 13 39480 2002 73%
c - 201.93 53 17 103 30050 1606896 24708 24% 13 39480 2002 73%
c - 203.77 53 16 104 30474 1638097 23110 23% 13 39480 2002 73%
c # 204.55 53 15 104 30663 1653116 31077 22% 13 39480 2002 73%
c - 205.48 53 15 105 31001 1669599 23626 22% 12 39480 2002 73%
c - 206.89 53 15 106 31949 1701399 22613 22% 12 39480 2002 73%
c s 206.91 53 15 106 31949 1701399 17907 22% 12 39480 2002 73%
c w 207.02 53 15 106 31949 1701399 17903 22% 12 39480 2002 73%
c B 207.50 53 15 106 32201 1711117 23175 22% 12 39480 2002 73%
c - 209.07 53 17 107 33658 1733499 24303 24% 13 39480 2002 73%
c - 210.75 53 16 108 34228 1765903 25741 23% 13 39480 2002 73%
c W 212.94 53 16 108 34260 1770120 28252 23% 12 39480 2002 73%
c - 214.50 53 15 109 34495 1798604 25942 23% 12 39480 2002 73%
c F 216.38 53 15 109 34741 1830121 43644 23% 12 39480 2002 73%
c - 216.52 53 15 110 34760 1831606 25504 23% 12 39480 2002 73%
c - 218.27 53 14 111 35131 1864906 25959 22% 12 39480 2002 73%
c B 219.85 53 14 111 35596 1891122 39427 22% 11 39480 2002 73%
c - 220.31 53 14 112 36022 1898507 24433 23% 12 39480 2002 73%
c 
c  seconds    reductions         redundant   irredundant
c          MB       restarts            trail      variables
c           level         conflicts         glue        remaining
c 
c - 221.81 53 14 113 37012 1932409 22286 23% 12 39480 2002 73%
c W 225.16 53 14 113 37592 1953124 32034 23% 12 39480 2002 73%
c - 226.06 53 14 114 37798 1966609 22842 23% 12 39480 2002 73%
c - 228.17 53 13 115 38704 2001109 23818 23% 11 39480 2002 73%
c # 229.00 53 13 115 39239 2016125 30849 23% 11 39480 2002 73%
c - 230.04 53 14 116 43050 2035911 21973 23% 12 39480 2002 73%
c } 230.57 53 14 116 44471 2047016 26638 23% 12 39480 2002 73%
c [ 230.57 53 76 116 44471 2047016 26638 81% 53 39480 2002 73%
c - 232.22 53 64 117 44481 2071011 27501 68% 45 39480 2002 73%
c I 232.86 53 61 117 44486 2080127 33955 64% 43 39480 2002 73%
c - 239.55 53 79 118 44490 2106411 39072 69% 50 39480 2002 73%
c - 253.48 60 84 119 44505 2142111 44576 73% 56 39480 2002 73%
c B 254.84 60 84 119 44505 2145128 47197 73% 57 39480 2002 73%
c - 269.66 74 85 120 44520 2178111 46339 76% 59 39480 2002 73%
c s 269.75 74 85 120 44520 2178111 42536 76% 59 39480 2002 73%
c w 270.06 74 85 120 44520 2178111 42532 76% 59 39480 2002 73%
c W 288.02 74 82 120 44522 2211129 72441 78% 59 39480 2002 73%
c - 288.82 74 89 121 44522 2214411 49074 78% 60 39480 2002 73%
c - 301.65 74 111 122 44523 2251011 47049 78% 65 39480 2002 73%
c O 312.85 74 109 122 44523 2278134 72563 79% 66 39480 2002 73%
c 
c  seconds     reductions         redundant   irredundant
c          MB        restarts            trail      variables
c            level         conflicts         glue        remaining
c 
c - 313.63 74 101 123 44523 2287912 47910 75% 62 39480 2002 73%
c - 317.61 74 80 124 44524 2325112 41123 62% 50 39480 2002 73%
c B 320.16 74 72 124 44524 2346135 56942 56% 46 39480 2002 73%
c - 323.54 74 107 125 44524 2362612 46778 60% 54 39480 2002 73%
c - 336.71 74 167 126 44524 2400412 50537 66% 72 39480 2002 73%
c W 344.83 74 185 126 44524 2415137 64622 68% 75 39480 2002 73%
c - 352.29 85 165 127 44531 2438512 51010 72% 71 39480 2002 73%
c - 366.56 85 133 128 44549 2476915 48228 76% 65 39480 2002 73%
c I 369.69 85 128 128 44553 2485138 55424 76% 64 39480 2002 73%
c - 379.14 85 139 129 44559 2515615 50640 78% 72 39480 2002 73%
c - 395.34 85 124 130 44577 2554616 48727 80% 70 39480 2002 73%
c B 396.07 85 124 130 44577 2556139 49995 80% 70 39480 2002 73%
c - 406.47 85 113 131 44587 2593916 48860 81% 69 39480 2002 73%
c W 423.69 85 105 131 44589 2628140 79436 81% 68 39480 2002 73%
c - 424.91 85 105 132 44593 2633516 51273 81% 67 39480 2002 73%
c - 436.03 85 92 133 44610 2673417 48280 82% 61 39480 2002 73%
c O 445.71 85 84 133 44618 2701144 72484 82% 58 39480 2002 73%
c - 449.49 85 80 134 44621 2713617 49510 82% 56 39480 2002 73%
c s 449.62 85 80 134 44621 2713617 49044 82% 56 39480 2002 73%
c w 450.00 85 80 134 44621 2713617 49035 82% 56 39480 2002 73%
c 
c  seconds    reductions         redundant   irredundant
c          MB       restarts            trail      variables
c           level         conflicts         glue        remaining
c 
c - 462.71 85 72 135 44640 2754121 52385 83% 52 39480 2002 73%
c B 471.22 85 69 135 44648 2775145 71670 83% 51 39480 2002 73%
c - 482.45 85 67 136 44650 2794921 54590 83% 50 39480 2002 73%
c - 499.88 85 64 137 44651 2836023 55136 83% 49 39480 2002 73%
c W 509.34 85 64 137 44651 2850148 67878 83% 49 39480 2002 73%
c - 522.93 85 63 138 44651 2877424 56596 83% 49 39480 2002 73%
c - 542.50 87 61 139 44666 2919125 58461 83% 49 39480 2002 73%
c I 545.32 87 60 139 44667 2926149 64839 83% 49 39480 2002 73%
c - 556.82 87 87 140 44682 2961125 54457 84% 63 39480 2002 73%
c B 574.87 87 101 140 44697 3003152 93170 84% 70 39480 2002 73%
c - 575.20 69 101 141 44697 3003425 56062 84% 70 39480 2002 73%
c - 596.83 68 100 142 44713 3046026 57505 85% 71 39480 2002 73%
c ] 599.97 68 100 142 44713 3053169 64045 85% 71 39480 2002 73%
c ? 599.97 68 100 142 44713 3053169 64045 85% 71 39480 2002 73%
c 
c --- [ result ] -------------------------------------------------------------
c 
c UNKNOWN
c 
c --- [ run-time profiling ] -------------------------------------------------
c 
c process time taken by individual solving procedures
c (percentage relative to process time for solving)
c 
c       591.62   98.61% search
c       492.03   82.01% stable
c        71.25   11.88% unstable
c        28.34    4.72% walk
c         8.32    1.39% simplify
c         4.12    0.69% probe
c         1.31    0.22% vivify
c         0.65    0.11% ternary
c         0.55    0.09% subsume
c         0.27    0.04% elim
c         0.03    0.00% parse
c         0.00    0.00% lucky
c   =================================
c       599.94  100.00% solve
c 
c last line shows process time for solving
c (percentage relative to total process time)
c 
c --- [ statistics ] ---------------------------------------------------------
c 
c chronological:            468614        15.35 %  of conflicts
c conflicts:               3053169      5089.11    per second
c decisions:               4149303      6916.18    per second
c eliminated:                  546        19.90 %  of all variables
c fixed:                       196         7.14 %  of all variables
c learned:                 3020068        98.92 %  per conflict
c learned_lits:          319268320       100.00 %  learned literals
c minimized:                     0         0.00 %  learned literals
c shrunken:              136415798        42.73 %  learned literals
c minishrunken:           21167338         6.63 %  learned literals
c propagations:          367421920         0.61 M  per second
c reduced:                 2161520        70.80 %  per conflict
c rephased:                     77     39651.55    interval
c restarts:                  44713        68.28    interval
c stabilizing:                   6        55.29 %  of conflicts
c subsumed:                 792824        12.87 %  of all clauses
c strengthened:              15571         0.25 %  of all clauses
c vivified:                    235         0.00 %  of all clauses
c walked:                       24    127215.38    interval
c weakened:                  19224         2.41    average size
c 
c seconds are measured in process time for solving
c 
c --- [ resources ] ----------------------------------------------------------
c 
c total process time since initialization:       599.97    seconds
c total real time since initialization:          600.01    seconds
c maximum resident set size of process:          109.74    MB
c 
c --- [ shutting down ] ------------------------------------------------------
c 
c exit 0
